NAME : d9
COMMENT : Drilling problem (Reinelt)
TYPE : TSP
DIMENSION : 9
EDGE_WEIGHT_TYPE : EUC_2D
NODE_COORD_SECTION
1 0.00000e+00 0.00000e+00
2 1.00000e+00 2.00000e+00
3 2.00000e+00 1.00000e+00
4 2.00000e+00 2.00000e+00
5 2.00000e+00 0.00000e+00
6 1.00000e+00 0.00000e+00
7 1.50000e+00 1.00000e+00
8 1.00000e+00 1.50000e+00
9 1.50000e+00 1.50000e+00
EOF
